REM Best SHELXD solution:   CC 51.30   CC(weak) 31.76   CFOM  83.06
REM
TITL sad_fa.ins SAD in P321
CELL 0.98000 104.07 104.07 96.25 90.00 90.00 120.00
LATT -1
SYMM -Y,X-Y,Z+1/3
SYMM -X+Y,-X,Z+2/3
SYMM Y,X,-Z
SYMM -X,-X+Y,-Z+1/3
SYMM X-Y,-Y,-Z+2/3
SFAC SE
UNIT 192
SE01   1  0.834702  0.141479  0.028615   1.0000  0.2
SE02   1  0.953995  0.212708  0.041267   0.8893  0.2
SE03   1  0.825714 -0.132919 -0.026844   0.8501  0.2
SE04   1  0.852959  0.044151 -0.001724   0.8229  0.2
SE05   1  0.524864 -0.219048 -0.101755   0.7764  0.2
SE06   1  0.847382 -0.119087  0.020426   0.7136  0.2
SE07   1  0.750656 -0.195503 -0.021944   0.7132  0.2
SE08   1  0.717896 -0.153236 -0.007751   0.7019  0.2
SE09   1  0.827919  0.150780 -0.010334   0.1870  0.2
SE10   1  0.399773 -0.366821 -0.008833   0.1635  0.2
SE11   1  0.499748 -0.314659  0.137002   0.1568  0.2
SE12   1  0.467384 -0.528084  0.060141   0.1468  0.2
SE13   1  0.545723 -0.383888  0.232709   0.1425  0.2
SE14   1  0.329918 -0.572365  0.081173   0.1255  0.2
SE15   1  0.978989 -0.035919  0.177476   0.1048  0.2
SE16   1  0.630379 -0.023048 -0.028013   0.0991  0.2
SE17   1  0.787537  0.066147  0.049109   0.0989  0.2
SE18   1  0.652893 -0.357452  0.192773   0.0840  0.2
SE19   1  0.632034 -0.289001 -0.012579   0.0809  0.2
SE20   1  0.295151 -0.329048 -0.104794   0.0798  0.2
SE21   1  1.100784  0.209839  0.038602   0.0792  0.2
SE22   1  0.483795 -0.459320  0.391485   0.0776  0.2
SE23   1  0.894936 -0.044914  0.089307   0.0756  0.2
SE24   1  1.036942  0.180481 -0.093457   0.0707  0.2
SE25   1  0.519424 -0.547043  0.244690   0.0674  0.2
SE26   1  0.559517 -0.247223  0.328993   0.0537  0.2
SE27   1  0.289848 -0.325752 -0.061211   0.0474  0.2
SE28   1  0.896248 -0.033119  0.126360   0.0162  0.2
HKLF 3
END 
