REM Best SHELXD solution:   CC 30.48   CC(weak) 17.72   CFOM  48.20
REM
TITL sad_fa.ins SAD in P321
CELL 0.98000 104.07 104.07 96.25 90.00 90.00 120.00
LATT -1
SYMM -Y,X-Y,Z
SYMM -X+Y,-X,Z
SYMM Y,X,-Z
SYMM -X,-X+Y,-Z
SYMM X-Y,-Y,-Z
SFAC SE
UNIT 192
SE01   1  0.252228  0.107658  0.189343   1.0000  0.2
SE02   1  0.206230  0.036270  0.476183   0.5976  0.2
SE03   1  0.271477 -0.039696  0.122795   0.5757  0.2
SE04   1  0.134384  0.012901  0.138808   0.5735  0.2
SE05   1  0.525284  0.255219  0.596086   0.5176  0.2
SE06   1  0.308205  0.225037  0.535404   0.4786  0.2
SE07   1  0.190208 -0.167542  0.132238   0.4784  0.2
SE08   1  0.173569  0.090492  0.194916   0.4735  0.2
SE09   1  0.199471  0.197655  0.500000   0.4569  0.2
SE10   1  0.160614 -0.076515  0.159284   0.4500  0.2
SE11   1  0.259354  0.096298  0.545450   0.3653  0.2
SE12   1  0.097954 -0.146172  0.168634   0.3590  0.2
SE13   1  0.213043 -0.010109  0.206915   0.2925  0.2
SE14   1  0.482475  0.323715  0.092625   0.2062  0.2
HKLF 3
END 
