REM Best SHELXD solution:   CC 38.30   CC(weak) 16.63   CFOM  54.93
REM
TITL sad_fa.ins SAD in P321
CELL 0.98000 104.07 104.07 96.25 90.00 90.00 120.00
LATT -1
SYMM -Y,X-Y,Z
SYMM -X+Y,-X,Z
SYMM Y,X,-Z
SYMM -X,-X+Y,-Z
SYMM X-Y,-Y,-Z
SFAC SE
UNIT 192
SE01   1  0.748489  0.892342  0.312407   1.0000  0.2
SE02   1  0.775589  0.693497  0.034632   0.6131  0.2
SE03   1  0.725929  1.040527  0.377513   0.6096  0.2
SE04   1  0.858749  0.906746  0.339034   0.5617  0.2
SE05   1  0.965340  0.792885 -0.024741   0.5312  0.2
SE06   1  0.863152  0.981133  0.358687   0.4959  0.2
SE07   1  0.869301  0.669067  0.013697   0.4349  0.2
SE08   1  0.523705  0.691513  0.237457   0.4231  0.2
SE09   1  0.795319  1.015388  0.304272   0.3847  0.2
SE10   1  0.954971  0.770439  0.025715   0.3647  0.2
SE11   1  0.802162  1.166901  0.377863   0.3559  0.2
SE12   1  0.839760  1.072083  0.339443   0.3549  0.2
SE13   1  0.823051  0.903427  0.303865   0.3433  0.2
SE14   1  0.802155  0.800171  0.000000   0.3406  0.2
SE15   1  0.746620  0.467064  0.090742   0.3367  0.2
SE16   1  0.900635  0.738594  0.046608   0.3341  0.2
SE17   1  0.782303  1.200180  0.431579   0.3334  0.2
SE18   1  0.357147  0.620949  0.265881   0.3312  0.2
SE19   1  0.969749  0.652489 -0.040053   0.3058  0.2
SE20   1  0.539383  0.660385  0.386539   0.2851  0.2
SE21   1  0.450119  0.643143  0.422198   0.2429  0.2
SE22   1  0.829582  0.903244  0.366134   0.2375  0.2
SE23   1  0.941574  0.705261  0.019520   0.2342  0.2
SE24   1  0.900040  1.146843  0.324000   0.2261  0.2
SE25   1  0.706451  1.146729  0.496543   0.2234  0.2
SE26   1  0.912285  0.932167  0.152233   0.2181  0.2
SE27   1  0.628334  0.411613  0.079079   0.2176  0.2
SE28   1  0.957367  0.638626 -0.002074   0.2172  0.2
SE29   1  0.998093  0.870461  0.000000   0.2140  0.2
SE30   1  0.891724  0.901695  0.109051   0.2075  0.2
SE31   1  0.907616  0.872612  0.261748   0.1970  0.2
SE32   1  0.785934  1.024734  0.396402   0.1967  0.2
SE33   1  0.290695  0.520172  0.315082   0.1732  0.2
SE34   1  0.756012  0.953941  0.388843   0.1664  0.2
SE35   1  0.779877  0.702354 -0.112847   0.1638  0.2
SE36   1  0.767532  1.136261  0.388724   0.1615  0.2
SE37   1  0.878899  0.490585 -0.100150   0.1608  0.2
SE38   1  0.831718  0.709862  0.036240   0.1568  0.2
SE39   1  0.547882  0.741508  0.234866   0.1541  0.2
SE40   1  0.595757  0.512802  0.144058   0.1513  0.2
SE41   1  0.346252  0.652412  0.210124   0.1449  0.2
SE42   1  0.762451  1.127693  0.482356   0.1372  0.2
SE43   1  0.287697  0.448540  0.270303   0.1301  0.2
SE44   1  0.521912  0.722427  0.453106   0.1295  0.2
SE45   1  0.641655  0.788002  0.391493   0.1260  0.2
SE46   1  0.294823  0.525795  0.405315   0.1186  0.2
SE47   1  0.853073  0.769585  0.063871   0.1142  0.2
SE48   1  0.786057  0.644310 -0.056333   0.1141  0.2
SE49   1  0.333252  0.354332  0.238880   0.1106  0.2
SE50   1  0.894661  0.846642  0.158781   0.1100  0.2
SE51   1  0.583000  0.587624  0.060265   0.0923  0.2
SE52   1  0.646980  0.620667  0.081697   0.0907  0.2
SE53   1  0.895859  0.991302  0.132421   0.0896  0.2
SE54   1  0.281738  0.523071  0.362037   0.0876  0.2
SE55   1  0.771622  0.838753  0.300539   0.0430  0.2
SE56   1  0.511330  0.779839  0.227045   0.0078  0.2
HKLF 3
END 
