REM Best SHELXD solution:   CC 46.23   CC(weak) 29.36   CFOM  75.59
REM
TITL sad_fa.ins SAD in P321
CELL 0.98000 104.07 104.07 96.25 90.00 90.00 120.00
LATT -1
SYMM -Y,X-Y,Z+1/3
SYMM -X+Y,-X,Z+2/3
SYMM Y,X,-Z
SYMM -X,-X+Y,-Z+1/3
SYMM X-Y,-Y,-Z+2/3
SFAC SE
UNIT 192
SE01   1  0.834816  0.141479  0.028844   1.0000  0.2
SE02   1  0.953941  0.212677  0.040305   0.9020  0.2
SE03   1  0.819992 -0.138153 -0.025544   0.8690  0.2
SE04   1  0.851860  0.044647 -0.001287   0.7803  0.2
SE05   1  0.525467 -0.219040 -0.103099   0.7458  0.2
SE06   1  0.847565 -0.118752  0.020761   0.6740  0.2
SE07   1  0.750656 -0.194344 -0.020430   0.6674  0.2
HKLF 3
END 
