REM Best SHELXD solution:   CC 35.89   CC(weak) 23.58   CFOM  59.47
REM
TITL sad_fa.ins SAD in P321
CELL 0.98000 104.07 104.07 96.25 90.00 90.00 120.00
LATT -1
SYMM -Y,X-Y,Z+1/3
SYMM -X+Y,-X,Z+2/3
SYMM Y,X,-Z
SYMM -X,-X+Y,-Z+1/3
SYMM X-Y,-Y,-Z+2/3
SFAC SE
UNIT 192
SE01   1  0.742630  0.785423  0.126352   1.0000  0.2
SE02   1  0.961060  1.136566  0.193571   0.9996  0.2
SE03   1  0.694412  0.860268  0.138668   0.9992  0.2
SE04   1  0.944740  1.191864  0.187777   0.8009  0.2
SE05   1  0.807915  0.958939  0.169139   0.7966  0.2
HKLF 3
END 
