REM Best SHELXD solution:   CC 51.51   CC(weak) 33.35   CFOM  84.85
REM
TITL sad_fa.ins SAD in P321
CELL 0.98000 104.07 104.07 96.25 90.00 90.00 120.00
LATT -1
SYMM -Y,X-Y,Z+1/3
SYMM -X+Y,-X,Z+2/3
SYMM Y,X,-Z
SYMM -X,-X+Y,-Z+1/3
SYMM X-Y,-Y,-Z+2/3
SFAC SE
UNIT 192
SE01   1  0.834503  0.141533  0.027948   1.0000  0.2
SE02   1  0.953857  0.212837  0.041099   0.9024  0.2
SE03   1  0.819817 -0.138428 -0.026704   0.8409  0.2
SE04   1  0.852654  0.044540 -0.001417   0.8189  0.2
SE05   1  0.525063 -0.218781 -0.101611   0.7641  0.2
SE06   1  0.723045 -0.147232 -0.010514   0.7367  0.2
SE07   1  0.750443 -0.194946 -0.022039   0.7168  0.2
SE08   1  0.847549 -0.119164  0.021812   0.7120  0.2
SE09   1  0.978691 -0.036217  0.175710   0.1539  0.2
SE10   1  1.071190  0.453819 -0.101291   0.1501  0.2
SE11   1  1.095329  0.669189 -0.251992   0.1336  0.2
SE12   1  0.932671  0.482925 -0.088504   0.0920  0.2
SE13   1  0.819893 -0.139969  0.238186   0.0815  0.2
SE14   1  0.724785 -0.283020  0.201433   0.0622  0.2
HKLF 3
END 
