REM Best SHELXD solution:   CC 37.33   CC(weak) 19.71   CFOM  57.04
REM
TITL sad_fa.ins SAD in P321
CELL 0.98000 104.07 104.07 96.25 90.00 90.00 120.00
LATT -1
SYMM -Y,X-Y,Z
SYMM -X+Y,-X,Z
SYMM Y,X,-Z
SYMM -X,-X+Y,-Z
SYMM X-Y,-Y,-Z
SFAC SE
UNIT 192
SE01   1  0.858093  0.751183  0.188494   1.0000  0.2
SE02   1  1.000000  0.800056  0.500000   0.2868  0.2
SE03   1  0.683655  0.724968  0.123733   0.5474  0.2
SE04   1  0.919266  0.690437  0.533362   0.5187  0.2
SE05   1  0.956421  0.860603  0.163703   0.5103  0.2
SE06   1  0.877258  0.864380  0.142273   0.4711  0.2
SE07   1  1.173370  0.964729  0.525203   0.4520  0.2
SE08   1  0.833725  0.526047  0.264024   0.3922  0.2
SE09   1  1.191490  0.959450  0.474723   0.3903  0.2
SE10   1  1.215256  0.877907  0.489483   0.3761  0.2
SE11   1  0.639954  0.808556  0.123223   0.3656  0.2
SE12   1  0.916679  0.825195  0.196464   0.3496  0.2
SE13   1  1.157959  0.902870  0.453675   0.3424  0.2
SE14   1  0.768517  0.841148  0.161166   0.3364  0.2
SE15   1  0.580673  0.785172  0.066081   0.3327  0.2
SE16   1  0.778091  0.792747  0.205690   0.3304  0.2
SE17   1  1.275978  0.747177  0.406073   0.3240  0.2
SE18   1  0.906723  0.882492  0.191343   0.2897  0.2
SE19   1  0.734924  0.358376  0.236271   0.2728  0.2
SE20   1  0.755905  0.901184  0.170727   0.2683  0.2
SE21   1  0.808258  0.450089  0.075867   0.2671  0.2
SE22   1  0.925980  0.826561  0.134035   0.2364  0.2
SE23   1  0.635239  0.910645  0.046333   0.1488  0.2
SE24   1  0.658562  0.778442  0.228001   0.1377  0.2
SE25   1  1.080368  0.852715  0.439493   0.1279  0.2
SE26   1  0.893150  0.716125  0.524858   0.1227  0.2
SE27   1  0.997276  0.542122  0.337628   0.1024  0.2
SE28   1  1.376442  0.799835  0.290733   0.0837  0.2
HKLF 3
END 
