REM Best SHELXD solution:   CC 51.71   CC(weak) 28.92   CFOM  80.63
REM
TITL sad_fa.ins SAD in P321
CELL 0.98000 104.07 104.07 96.25 90.00 90.00 120.00
LATT -1
SYMM -Y,X-Y,Z+1/3
SYMM -X+Y,-X,Z+2/3
SYMM Y,X,-Z
SYMM -X,-X+Y,-Z+1/3
SYMM X-Y,-Y,-Z+2/3
SFAC SE
UNIT 192
SE01   1  0.694305  0.859543  0.138505   1.0000  0.2
SE02   1  0.740677  0.785141  0.125875   0.8725  0.2
SE03   1  0.961075  1.136398  0.193396   0.8708  0.2
SE04   1  0.807381  0.958641  0.168248   0.7905  0.2
SE05   1  0.741516  1.216690  0.269986   0.7543  0.2
SE06   1  0.944702  1.193153  0.189175   0.7324  0.2
SE07   1  0.964455  1.115402  0.144930   0.7130  0.2
SE08   1  0.870949  1.152252  0.174539   0.6900  0.2
SE09   1  0.676903  0.845871  0.176446   0.2347  0.2
SE10   1  0.815033  1.321434  0.028478   0.1899  0.2
SE11   1  0.562805  0.923851  0.185160   0.1800  0.2
SE12   1  0.597931  1.275085  0.332733   0.1777  0.2
SE13   1  0.926842  1.386299 -0.066595   0.1737  0.2
SE14   1  0.854904  1.348297  0.007522   0.1693  0.2
SE15   1  0.922470  1.342033  0.246206   0.1650  0.2
SE16   1  0.767113  1.369476  0.176060   0.1602  0.2
SE17   1  0.882881  0.677353  0.144416   0.1561  0.2
SE18   1  0.946350  1.044548  0.079079   0.1543  0.2
SE19   1  0.710709  1.285324  0.381324   0.1516  0.2
SE20   1  0.731483  0.978485  0.092373   0.1512  0.2
SE21   1  1.018181  1.035637 -0.009984   0.1456  0.2
SE22   1  0.939629  0.580254  0.166793   0.1446  0.2
SE23   1  0.871513  1.471619  0.275694   0.1385  0.2
SE24   1  0.898911  0.764229  0.095019   0.1320  0.2
SE25   1  0.652344  0.923721  0.019880   0.1250  0.2
SE26   1  0.958092  1.157845 -0.035175   0.1240  0.2
SE27   1  0.436821  1.004578  0.316450   0.1206  0.2
SE28   1  0.811844  1.211288  0.212376   0.1183  0.2
SE29   1  0.383499  1.084625  0.327743   0.1180  0.2
SE30   1  0.800484  1.302963 -0.006917   0.1143  0.2
SE31   1  0.837746  0.574722  0.183943   0.1108  0.2
SE32   1  1.018448  1.007790  0.129187   0.1097  0.2
SE33   1  0.611107  1.222679  0.433941   0.1036  0.2
SE34   1  0.802063  0.642792  0.116961   0.1031  0.2
SE35   1  0.850266  1.101997 -0.081264   0.1031  0.2
SE36   1  0.915161  1.302666  0.142210   0.1004  0.2
SE37   1  0.906227  1.555954  0.299871   0.0998  0.2
SE38   1  0.899254  0.570618  0.085336   0.0987  0.2
SE39   1  1.004921  1.282227 -0.033649   0.0939  0.2
SE40   1  1.008949  1.355263 -0.029748   0.0938  0.2
SE41   1  0.891121  0.792679  0.126669   0.0922  0.2
SE42   1  0.523598  0.885109  0.062148   0.0903  0.2
SE43   1  0.950958  1.412331 -0.118743   0.0883  0.2
SE44   1  0.757034  0.562584  0.172586   0.0793  0.2
SE45   1  0.944199  1.577873  0.389238   0.0756  0.2
SE46   1  0.470154  1.088211  0.325216   0.0744  0.2
SE47   1  0.613136  1.324226  0.227815   0.0742  0.2
SE48   1  0.960983  1.141403 -0.072620   0.0734  0.2
SE49   1  0.759796  0.966133  0.204910   0.0712  0.2
SE50   1  0.915359  0.490700  0.142246   0.0704  0.2
SE51   1  0.773376  0.897728  0.093195   0.0662  0.2
SE52   1  0.625175  1.328262  0.270783   0.0580  0.2
SE53   1  0.557266  1.145462  0.502481   0.0459  0.2
SE54   1  0.894913  0.574043  0.009112   0.0408  0.2
SE55   1  0.562386  1.014435  0.148684   0.0394  0.2
SE56   1  0.816650  1.065521  0.125881   0.0097  0.2
HKLF 3
END 
