REM Best SHELXD solution:   CC 17.10   CC(weak) 10.11   CFOM  27.20
REM
TITL sad_fa.ins SAD in P321
CELL 0.98000 104.07 104.07 96.25 90.00 90.00 120.00
LATT -1
SYMM -Y,X-Y,Z
SYMM -X+Y,-X,Z
SYMM Y,X,-Z
SYMM -X,-X+Y,-Z
SYMM X-Y,-Y,-Z
SFAC SE
UNIT 192
SE01   1  0.251953  0.107170  0.190115   1.0000  0.2
SE02   1  0.134712  0.012718  0.141195   0.7052  0.2
SE03   1  0.223228  0.305733  0.463889   0.6023  0.2
SE04   1  0.191299 -0.164185  0.140458   0.4255  0.2
SE05   1  0.448555  0.083275  0.170223   0.3034  0.2
HKLF 3
END 
