REM Best SHELXD solution:   CC 21.22   CC(weak) 12.31   CFOM  33.53
REM
TITL sad_fa.ins SAD in P321
CELL 0.98000 104.07 104.07 96.25 90.00 90.00 120.00
LATT -1
SYMM -Y,X-Y,Z
SYMM -X+Y,-X,Z
SYMM Y,X,-Z
SYMM -X,-X+Y,-Z
SYMM X-Y,-Y,-Z
SFAC SE
UNIT 192
SE01   1  0.251869  0.107307  0.190320   1.0000  0.2
SE02   1  0.136078  0.014893  0.140944   0.5790  0.2
SE03   1  0.274559 -0.038849  0.123781   0.5358  0.2
SE04   1  0.223053  0.308456  0.463791   0.5201  0.2
SE05   1  0.191154 -0.164673  0.140475   0.4259  0.2
SE06   1  0.177719  0.089066  0.191932   0.4149  0.2
SE07   1  0.040733  0.208672  0.528795   0.3538  0.2
HKLF 3
END 
